Bi6 I18
1.0
   3.8095493519309533   -6.5983223830203670    0.0000004384976359
   3.8095404355818907    6.5983278726784711    0.0000000413346681
   0.0000013156322703   -0.0000006287129063   21.9089618912995405
Bi I
6 18
direct
  -0.0000000156081660    0.0000000031279442    0.3336056230323370 Bi
   0.6666666766056432    0.3333333198719043    0.9997277006664360 Bi
   0.6666666556075831    0.3333333372670644    0.6669389545409772 Bi
   0.3333333400692062    0.6666666657836106    0.3330610398410885 Bi
   0.3333333186166992    0.6666666789233926    0.0002722917530563 Bi
   1.0000000105057232    0.9999999921253094    0.6663943688649639 Bi
   0.3364394726794091    0.3354902024844978    0.0829288745122832 I
   0.9990507007061469    0.6635605069264586    0.0829289021160289 I
   1.0021568511408991    0.3323840563321390    0.2504044529434029 I
   0.6676159518911297    0.6697728005323832    0.2504044454374894 I
   0.3302271882284913   -0.0021568878794158    0.2504044561039249 I
   0.6645098181312149    0.0009492609308052    0.0829288768247980 I
   1.0031061542213870    0.6688235615466870    0.4162622191869734 I
   0.6657173757185548   -0.0031061069955009    0.4162622097936817 I
   0.6688235187593118    0.6657173917281299    0.5837377875651985 I
   0.3342826038499543    1.0031060928571047    0.5837377888194156 I
  -0.0031061134322203    0.3311764688456152    0.5837377985018809 I
   0.3311764885741268    0.3342826047964664    0.4162622132043353 I
   0.6697727568525431    1.0021568454061971    0.7495955319836608 I
   0.3323840590622537    0.3302272413026026    0.7495955382970176 I
   0.3354901407864942    0.9990507512289615    0.9170711302832262 I
   0.0009492769649281    0.3364394433805862    0.9170711156563660 I
   0.6635605748208967    0.6645098276225361    0.9170711446046494 I
  -0.0021568038397991    0.6676159426890337    0.7495955350045707 I
