Bi6 I18
1.0
   3.8095493773261242   -6.5983221456114896    0.0000003025628315
   3.8095403379603514    6.5983275642456052   -0.0000004651671511
  -0.0000004458370360   -0.0000012153262946   21.9089661175873331
Bi I
6 18
direct
  -0.0000000184629073    0.0000000014621440    0.3336056246678329 Bi
   0.6666666736530867    0.3333333139997395    0.9997277066651286 Bi
   0.6666666593040392    0.3333333381858663    0.6669389579981222 Bi
   0.3333333383293783    0.6666666602465519    0.3330610426363294 Bi
   0.3333333074368404    0.6666666777215335    0.0002722960540630 Bi
   1.0000000022555471    0.9999999888007320    0.6663943732001352 Bi
   0.3364394793321588    0.3354902071668504    0.0829288690494722 I
   0.9990507049114314    0.6635604984239726    0.0829288954540737 I
   1.0021568597665378    0.3323840572225181    0.2504044585089369 I
   0.6676159539236627    0.6697728121173254    0.2504044511697821 I
   0.3302271799706720   -0.0021568996402048    0.2504044613615687 I
   0.6645098140009580    0.0009492623174294    0.0829288713256322 I
   1.0031061651707469    0.6688235724104917    0.4162622115672044 I
   0.6657173788613037   -0.0031061142392006    0.4162622051667923 I
   0.6688235254749677    0.6657173975159884    0.5837377905122437 I
   0.3342825995657022    1.0031060946889858    0.5837377902145611 I
  -0.0031061126343373    0.3311764610839443    0.5837378015469561 I
   0.3311764784509563    0.3342826069455696    0.4162622060222758 I
   0.6697727680481456    1.0021568530087717    0.7495955264151907 I
   0.3323840549198369    0.3302272327980892    0.7495955360862331 I
   0.3354901420121978    0.9990507536412666    0.9170711330466015 I
   0.0009492840110193    0.3364394523532706    0.9170711200200368 I
   0.6635605735854435    0.6645098266905858    0.9170711418861451 I
  -0.0021568113766446    0.6676159459323817    0.7495955296421234 I
