Bi6 I18
1.0
   3.8095486343633729   -6.5983198993393470    0.0000005992829491
   3.8095396635836245    6.5983253575688323   -0.0000000450025223
   0.0000015197587245   -0.0000010199107565   21.9089510883112943
Bi I
6 18
direct
  -0.0000000129965396    0.0000000077862324    0.3336056255243190 Bi
   0.6666666796831660    0.3333333178740691    0.9997277083010377 Bi
   0.6666666497527641    0.3333333443781938    0.6669389542440666 Bi
   0.3333333348800828    0.6666666582519872    0.3330610443196194 Bi
   0.3333333041081340    0.6666666762951891    0.0002722890573446 Bi
   1.0000000253211172    0.9999999971109006    0.6663943745665351 Bi
   0.3364393752341413    0.3354900937429474    0.0829289437076886 I
   0.9990506926687626    0.6635606002724550    0.0829289685332962 I
   1.0021567345436828    0.3323840380452054    0.2504043804739718 I
   0.6676159632602903    0.6697726971599457    0.2504043724130696 I
   0.3302272869752430   -0.0021567774051428    0.2504043847765681 I
   0.6645099289021918    0.0009492719267577    0.0829289473263493 I
   1.0031060588824157    0.6688234515641018    0.4162622886230071 I
   0.6657173692435222   -0.0031060033771205    0.4162622839299633 I
   0.6688234028927991    0.6657173802572350    0.5837377141993191 I
   0.3342826147964332    1.0031059909091131    0.5837377150419354 I
  -0.0031060101303552    0.3311765830485419    0.5837377245883176 I
   0.3311765959790926    0.3342826199322149    0.4162622803792420 I
   0.6697726579365445    1.0021567242811806    0.7495956080274033 I
   0.3323840405703720    0.3302273333991489    0.7495956055078392 I
   0.3354900324965302    0.9990507318152944    0.9170710615732691 I
   0.0009492978792391    0.3364393560127808    0.9170710483326568 I
   0.6635606690822679    0.6645099462075040    0.9170710707200012 I
  -0.0021566910666002    0.6676159613268775    0.7495956057652720 I
