Bi8 S12
1.0
   4.0771975205138924    0.0000001507265988   -0.0000000812345748
   0.0000004155153669   11.1614833858019669   -0.0000001766775069
  -0.0000002273401688   -0.0000001793574364   11.2031112008896123
Bi S
8 12
direct
   0.2500000004656369    0.3243836793166288    0.4965445691372906 Bi
   0.7500000020501936    0.6756163230784183    0.5034554302376544 Bi
   0.7499999986771726    0.8243836778162590    1.0034554282490906 Bi
   0.2500000050322340    0.1756163265012132   -0.0034554250775725 Bi
   0.7499999948365665    0.0349174014558012    0.6662980624171472 Bi
   0.2500000052722330    0.9650826000506992    0.3337019385246249 Bi
   0.2500000002455411    0.5349174033290193    0.8337019324064517 Bi
   0.7499999987809315    0.4650825955166281    0.1662980690811327 Bi
   0.7500000025900315    0.3706798589369263    0.9491595763056723 S
   0.2500000000469055    0.6293201413136952    0.0508404211480281 S
   0.2499999986925763    0.8706798614014671    0.5508404215878687 S
   0.7499999971829986    0.1293201376635515    0.4491595787375118 S
   0.7500000004632512    0.4377508609265117    0.6150749935484972 S
   0.2500000020340324    0.5622491396319197    0.3849250042554992 S
   0.2500000032422981    0.9377508584798726    0.8849250009300161 S
   0.7499999955219306    0.0622491376841974    0.1150749947938633 S
   0.2499999961872716    0.3061177475413464    0.2117313026371704 S
   0.7500000002689090    0.6938822510096734    0.7882687039039619 S
   0.7500000025511107    0.8061177472766435    0.2882686982966523 S
   0.2499999952884198    0.1938822515592067    0.7117312987871415 S
