Bi8 S12                                 
   1.00000000000000     
     3.9417664125438807   -0.0000000000000000    0.0000000000000002
     0.0000000000000017   10.8664596874457562    0.0000000000000006
    -0.0000000000000000   -0.0000000000000000   11.0312860643397705
   Bi   S 
     8    12
Direct
  0.2500000000000000  0.3238664920319619  0.5034009162062740
  0.7500000000000000  0.6761335079680381  0.4965990837937259
  0.7500000000000000  0.8238664920319619  0.9965990837937260
  0.2500000000000000  0.1761335079680381  0.0034009162062741
  0.7500000000000000  0.0299058836397786  0.6690161797840193
  0.2500000000000000  0.9700941163602214  0.3309838202159807
  0.2500000000000000  0.5299058836397786  0.8309838202159807
  0.7500000000000000  0.4700941163602214  0.1690161797840193
  0.7500000000000000  0.3704562394959415  0.9497103587842576
  0.2500000000000000  0.6295437605040585  0.0502896412157424
  0.2500000000000000  0.8704562394959415  0.5502896412157424
  0.7500000000000000  0.1295437605040585  0.4497103587842576
  0.7500000000000000  0.4427194380913427  0.6231739947116341
  0.2500000000000000  0.5572805619086574  0.3768260052883659
  0.2500000000000000  0.9427194380913426  0.8768260052883659
  0.7500000000000000  0.0572805619086573  0.1231739947116341
  0.2500000000000000  0.3040339409056735  0.2193938644900095
  0.7500000000000000  0.6959660590943264  0.7806061355099905
  0.7500000000000000  0.8040339409056736  0.2806061355099905
  0.2500000000000000  0.1959660590943265  0.7193938644900095
 
  0.00000000E+00  0.00000000E+00  0.00000000E+00
  0.00000000E+00  0.00000000E+00  0.00000000E+00
  0.00000000E+00  0.00000000E+00  0.00000000E+00
  0.00000000E+00  0.00000000E+00  0.00000000E+00
  0.00000000E+00  0.00000000E+00  0.00000000E+00
  0.00000000E+00  0.00000000E+00  0.00000000E+00
  0.00000000E+00  0.00000000E+00  0.00000000E+00
  0.00000000E+00  0.00000000E+00  0.00000000E+00
  0.00000000E+00  0.00000000E+00  0.00000000E+00
  0.00000000E+00  0.00000000E+00  0.00000000E+00
  0.00000000E+00  0.00000000E+00  0.00000000E+00
  0.00000000E+00  0.00000000E+00  0.00000000E+00
  0.00000000E+00  0.00000000E+00  0.00000000E+00
  0.00000000E+00  0.00000000E+00  0.00000000E+00
  0.00000000E+00  0.00000000E+00  0.00000000E+00
  0.00000000E+00  0.00000000E+00  0.00000000E+00
  0.00000000E+00  0.00000000E+00  0.00000000E+00
  0.00000000E+00  0.00000000E+00  0.00000000E+00
  0.00000000E+00  0.00000000E+00  0.00000000E+00
  0.00000000E+00  0.00000000E+00  0.00000000E+00

