This file is generated by VASPKIT code
 1.000000
   11.4286480557928591  -19.7949671490611010    0.0000013154929077
   11.4286213067456721   19.7949836180354133    0.0000001240040043
    0.0000039468968109   -0.0000018861387189   65.7268856738986216
   Bi   I 
   162   486
Direct
   -0.0000000052027220    0.0000000010426481    0.1112018743441123     Bi1
   -0.0000000052027220    0.0000000010426481    0.4445352076774456     Bi2
   -0.0000000052027220    0.0000000010426481    0.7778685410107791     Bi3
   -0.0000000052027220    0.3333333343759813    0.1112018743441123     Bi4
   -0.0000000052027220    0.3333333343759813    0.4445352076774456     Bi5
   -0.0000000052027220    0.3333333343759813    0.7778685410107791     Bi6
   -0.0000000052027220    0.6666666677093147    0.1112018743441123     Bi7
   -0.0000000052027220    0.6666666677093147    0.4445352076774456     Bi8
   -0.0000000052027220    0.6666666677093147    0.7778685410107791     Bi9
    0.3333333281306113    0.0000000010426481    0.1112018743441123    Bi10
    0.3333333281306113    0.0000000010426481    0.4445352076774456    Bi11
    0.3333333281306113    0.0000000010426481    0.7778685410107791    Bi12
    0.3333333281306113    0.3333333343759813    0.1112018743441123    Bi13
    0.3333333281306113    0.3333333343759813    0.4445352076774456    Bi14
    0.3333333281306113    0.3333333343759813    0.7778685410107791    Bi15
    0.3333333281306113    0.6666666677093147    0.1112018743441123    Bi16
    0.3333333281306113    0.6666666677093147    0.4445352076774456    Bi17
    0.3333333281306113    0.6666666677093147    0.7778685410107791    Bi18
    0.6666666614639446    0.0000000010426481    0.1112018743441123    Bi19
    0.6666666614639446    0.0000000010426481    0.4445352076774456    Bi20
    0.6666666614639446    0.0000000010426481    0.7778685410107791    Bi21
    0.6666666614639446    0.3333333343759813    0.1112018743441123    Bi22
    0.6666666614639446    0.3333333343759813    0.4445352076774456    Bi23
    0.6666666614639446    0.3333333343759813    0.7778685410107791    Bi24
    0.6666666614639446    0.6666666677093147    0.1112018743441123    Bi25
    0.6666666614639446    0.6666666677093147    0.4445352076774456    Bi26
    0.6666666614639446    0.6666666677093147    0.7778685410107791    Bi27
    0.2222222255352144    0.1111111066239681    0.3332425668888120    Bi28
    0.2222222255352144    0.1111111066239681    0.6665759002221453    Bi29
    0.2222222255352144    0.1111111066239681    0.9999092335554787    Bi30
    0.2222222255352144    0.4444444399573014    0.3332425668888120    Bi31
    0.2222222255352144    0.4444444399573014    0.6665759002221453    Bi32
    0.2222222255352144    0.4444444399573014    0.9999092335554787    Bi33
    0.2222222255352144    0.7777777732906347    0.3332425668888120    Bi34
    0.2222222255352144    0.7777777732906347    0.6665759002221453    Bi35
    0.2222222255352144    0.7777777732906347    0.9999092335554787    Bi36
    0.5555555588685477    0.1111111066239681    0.3332425668888120    Bi37
    0.5555555588685477    0.1111111066239681    0.6665759002221453    Bi38
    0.5555555588685477    0.1111111066239681    0.9999092335554787    Bi39
    0.5555555588685477    0.4444444399573014    0.3332425668888120    Bi40
    0.5555555588685477    0.4444444399573014    0.6665759002221453    Bi41
    0.5555555588685477    0.4444444399573014    0.9999092335554787    Bi42
    0.5555555588685477    0.7777777732906347    0.3332425668888120    Bi43
    0.5555555588685477    0.7777777732906347    0.6665759002221453    Bi44
    0.5555555588685477    0.7777777732906347    0.9999092335554787    Bi45
    0.8888888922018811    0.1111111066239681    0.3332425668888120    Bi46
    0.8888888922018811    0.1111111066239681    0.6665759002221453    Bi47
    0.8888888922018811    0.1111111066239681    0.9999092335554787    Bi48
    0.8888888922018811    0.4444444399573014    0.3332425668888120    Bi49
    0.8888888922018811    0.4444444399573014    0.6665759002221453    Bi50
    0.8888888922018811    0.4444444399573014    0.9999092335554787    Bi51
    0.8888888922018811    0.7777777732906347    0.3332425668888120    Bi52
    0.8888888922018811    0.7777777732906347    0.6665759002221453    Bi53
    0.8888888922018811    0.7777777732906347    0.9999092335554787    Bi54
    0.2222222185358610    0.1111111124223548    0.2223129848469924    Bi55
    0.2222222185358610    0.1111111124223548    0.5556463181803257    Bi56
    0.2222222185358610    0.1111111124223548    0.8889796515136590    Bi57
    0.2222222185358610    0.4444444457556881    0.2223129848469924    Bi58
    0.2222222185358610    0.4444444457556881    0.5556463181803257    Bi59
    0.2222222185358610    0.4444444457556881    0.8889796515136590    Bi60
    0.2222222185358610    0.7777777790890215    0.2223129848469924    Bi61
    0.2222222185358610    0.7777777790890215    0.5556463181803257    Bi62
    0.2222222185358610    0.7777777790890215    0.8889796515136590    Bi63
    0.5555555518691944    0.1111111124223548    0.2223129848469924    Bi64
    0.5555555518691944    0.1111111124223548    0.5556463181803257    Bi65
    0.5555555518691944    0.1111111124223548    0.8889796515136590    Bi66
    0.5555555518691944    0.4444444457556881    0.2223129848469924    Bi67
    0.5555555518691944    0.4444444457556881    0.5556463181803257    Bi68
    0.5555555518691944    0.4444444457556881    0.8889796515136590    Bi69
    0.5555555518691944    0.7777777790890215    0.2223129848469924    Bi70
    0.5555555518691944    0.7777777790890215    0.5556463181803257    Bi71
    0.5555555518691944    0.7777777790890215    0.8889796515136590    Bi72
    0.8888888852025276    0.1111111124223548    0.2223129848469924    Bi73
    0.8888888852025276    0.1111111124223548    0.5556463181803257    Bi74
    0.8888888852025276    0.1111111124223548    0.8889796515136590    Bi75
    0.8888888852025276    0.4444444457556881    0.2223129848469924    Bi76
    0.8888888852025276    0.4444444457556881    0.5556463181803257    Bi77
    0.8888888852025276    0.4444444457556881    0.8889796515136590    Bi78
    0.8888888852025276    0.7777777790890215    0.2223129848469924    Bi79
    0.8888888852025276    0.7777777790890215    0.5556463181803257    Bi80
    0.8888888852025276    0.7777777790890215    0.8889796515136590    Bi81
    0.1111111133564021    0.2222222219278702    0.1110203466136962    Bi82
    0.1111111133564021    0.2222222219278702    0.4443536799470295    Bi83
    0.1111111133564021    0.2222222219278702    0.7776870132803628    Bi84
    0.1111111133564021    0.5555555552612035    0.1110203466136962    Bi85
    0.1111111133564021    0.5555555552612035    0.4443536799470295    Bi86
    0.1111111133564021    0.5555555552612035    0.7776870132803628    Bi87
    0.1111111133564021    0.8888888885945369    0.1110203466136962    Bi88
    0.1111111133564021    0.8888888885945369    0.4443536799470295    Bi89
    0.1111111133564021    0.8888888885945369    0.7776870132803628    Bi90
    0.4444444466897354    0.2222222219278702    0.1110203466136962    Bi91
    0.4444444466897354    0.2222222219278702    0.4443536799470295    Bi92
    0.4444444466897354    0.2222222219278702    0.7776870132803628    Bi93
    0.4444444466897354    0.5555555552612035    0.1110203466136962    Bi94
    0.4444444466897354    0.5555555552612035    0.4443536799470295    Bi95
    0.4444444466897354    0.5555555552612035    0.7776870132803628    Bi96
    0.4444444466897354    0.8888888885945369    0.1110203466136962    Bi97
    0.4444444466897354    0.8888888885945369    0.4443536799470295    Bi98
    0.4444444466897354    0.8888888885945369    0.7776870132803628    Bi99
    0.7777777800230687    0.2222222219278702    0.1110203466136962   Bi100
    0.7777777800230687    0.2222222219278702    0.4443536799470295   Bi101
    0.7777777800230687    0.2222222219278702    0.7776870132803628   Bi102
    0.7777777800230687    0.5555555552612035    0.1110203466136962   Bi103
    0.7777777800230687    0.5555555552612035    0.4443536799470295   Bi104
    0.7777777800230687    0.5555555552612035    0.7776870132803628   Bi105
    0.7777777800230687    0.8888888885945369    0.1110203466136962   Bi106
    0.7777777800230687    0.8888888885945369    0.4443536799470295   Bi107
    0.7777777800230687    0.8888888885945369    0.7776870132803628   Bi108
    0.1111111062055664    0.2222222263077975    0.0000907639176854   Bi109
    0.1111111062055664    0.2222222263077975    0.3334240972510187   Bi110
    0.1111111062055664    0.2222222263077975    0.6667574305843520   Bi111
    0.1111111062055664    0.5555555596411308    0.0000907639176854   Bi112
    0.1111111062055664    0.5555555596411308    0.3334240972510187   Bi113
    0.1111111062055664    0.5555555596411308    0.6667574305843520   Bi114
    0.1111111062055664    0.8888888929744641    0.0000907639176854   Bi115
    0.1111111062055664    0.8888888929744641    0.3334240972510187   Bi116
    0.1111111062055664    0.8888888929744641    0.6667574305843520   Bi117
    0.4444444395388997    0.2222222263077975    0.0000907639176854   Bi118
    0.4444444395388997    0.2222222263077975    0.3334240972510187   Bi119
    0.4444444395388997    0.2222222263077975    0.6667574305843520   Bi120
    0.4444444395388997    0.5555555596411308    0.0000907639176854   Bi121
    0.4444444395388997    0.5555555596411308    0.3334240972510187   Bi122
    0.4444444395388997    0.5555555596411308    0.6667574305843520   Bi123
    0.4444444395388997    0.8888888929744641    0.0000907639176854   Bi124
    0.4444444395388997    0.8888888929744641    0.3334240972510187   Bi125
    0.4444444395388997    0.8888888929744641    0.6667574305843520   Bi126
    0.7777777728722330    0.2222222263077975    0.0000907639176854   Bi127
    0.7777777728722330    0.2222222263077975    0.3334240972510187   Bi128
    0.7777777728722330    0.2222222263077975    0.6667574305843520   Bi129
    0.7777777728722330    0.5555555596411308    0.0000907639176854   Bi130
    0.7777777728722330    0.5555555596411308    0.3334240972510187   Bi131
    0.7777777728722330    0.5555555596411308    0.6667574305843520   Bi132
    0.7777777728722330    0.8888888929744641    0.0000907639176854   Bi133
    0.7777777728722330    0.8888888929744641    0.3334240972510187   Bi134
    0.7777777728722330    0.8888888929744641    0.6667574305843520   Bi135
    0.3333333368352410    0.3333333307084365    0.2221314562883213   Bi136
    0.3333333368352410    0.3333333307084365    0.5554647896216546   Bi137
    0.3333333368352410    0.3333333307084365    0.8887981229549879   Bi138
    0.3333333368352410    0.6666666640417698    0.2221314562883213   Bi139
    0.3333333368352410    0.6666666640417698    0.5554647896216546   Bi140
    0.3333333368352410    0.6666666640417698    0.8887981229549879   Bi141
    0.3333333368352410   -0.0000000026248970    0.2221314562883213   Bi142
    0.3333333368352410   -0.0000000026248970    0.5554647896216546   Bi143
    0.3333333368352410   -0.0000000026248970    0.8887981229549879   Bi144
    0.6666666701685744    0.3333333307084365    0.2221314562883213   Bi145
    0.6666666701685744    0.3333333307084365    0.5554647896216546   Bi146
    0.6666666701685744    0.3333333307084365    0.8887981229549879   Bi147
    0.6666666701685744    0.6666666640417698    0.2221314562883213   Bi148
    0.6666666701685744    0.6666666640417698    0.5554647896216546   Bi149
    0.6666666701685744    0.6666666640417698    0.8887981229549879   Bi150
    0.6666666701685744   -0.0000000026248970    0.2221314562883213   Bi151
    0.6666666701685744   -0.0000000026248970    0.5554647896216546   Bi152
    0.6666666701685744   -0.0000000026248970    0.8887981229549879   Bi153
    0.0000000035019077    0.3333333307084365    0.2221314562883213   Bi154
    0.0000000035019077    0.3333333307084365    0.5554647896216546   Bi155
    0.0000000035019077    0.3333333307084365    0.8887981229549879   Bi156
    0.0000000035019077    0.6666666640417698    0.2221314562883213   Bi157
    0.0000000035019077    0.6666666640417698    0.5554647896216546   Bi158
    0.0000000035019077    0.6666666640417698    0.8887981229549879   Bi159
    0.0000000035019077   -0.0000000026248970    0.2221314562883213   Bi160
    0.0000000035019077   -0.0000000026248970    0.5554647896216546   Bi161
    0.0000000035019077   -0.0000000026248970    0.8887981229549879   Bi162
    0.1121464908931364    0.1118300674948326    0.0276429581707611      I1
    0.1121464908931364    0.1118300674948326    0.3609762915040944      I2
    0.1121464908931364    0.1118300674948326    0.6943096248374278      I3
    0.1121464908931364    0.4451634008281659    0.0276429581707611      I4
    0.1121464908931364    0.4451634008281659    0.3609762915040944      I5
    0.1121464908931364    0.4451634008281659    0.6943096248374278      I6
    0.1121464908931364    0.7784967341614992    0.0276429581707611      I7
    0.1121464908931364    0.7784967341614992    0.3609762915040944      I8
    0.1121464908931364    0.7784967341614992    0.6943096248374278      I9
    0.4454798242264697    0.1118300674948326    0.0276429581707611     I10
    0.4454798242264697    0.1118300674948326    0.3609762915040944     I11
    0.4454798242264697    0.1118300674948326    0.6943096248374278     I12
    0.4454798242264697    0.4451634008281659    0.0276429581707611     I13
    0.4454798242264697    0.4451634008281659    0.3609762915040944     I14
    0.4454798242264697    0.4451634008281659    0.6943096248374278     I15
    0.4454798242264697    0.7784967341614992    0.0276429581707611     I16
    0.4454798242264697    0.7784967341614992    0.3609762915040944     I17
    0.4454798242264697    0.7784967341614992    0.6943096248374278     I18
    0.7788131575598030    0.1118300674948326    0.0276429581707611     I19
    0.7788131575598030    0.1118300674948326    0.3609762915040944     I20
    0.7788131575598030    0.1118300674948326    0.6943096248374278     I21
    0.7788131575598030    0.4451634008281659    0.0276429581707611     I22
    0.7788131575598030    0.4451634008281659    0.3609762915040944     I23
    0.7788131575598030    0.4451634008281659    0.6943096248374278     I24
    0.7788131575598030    0.7784967341614992    0.0276429581707611     I25
    0.7788131575598030    0.7784967341614992    0.3609762915040944     I26
    0.7788131575598030    0.7784967341614992    0.6943096248374278     I27
    0.3330169002353823    0.2211868356421529    0.0276429673720096     I28
    0.3330169002353823    0.2211868356421529    0.3609763007053429     I29
    0.3330169002353823    0.2211868356421529    0.6943096340386763     I30
    0.3330169002353823    0.5545201689754862    0.0276429673720096     I31
    0.3330169002353823    0.5545201689754862    0.3609763007053429     I32
    0.3330169002353823    0.5545201689754862    0.6943096340386763     I33
    0.3330169002353823    0.8878535023088194    0.0276429673720096     I34
    0.3330169002353823    0.8878535023088194    0.3609763007053429     I35
    0.3330169002353823    0.8878535023088194    0.6943096340386763     I36
    0.6663502335687156    0.2211868356421529    0.0276429673720096     I37
    0.6663502335687156    0.2211868356421529    0.3609763007053429     I38
    0.6663502335687156    0.2211868356421529    0.6943096340386763     I39
    0.6663502335687156    0.5545201689754862    0.0276429673720096     I40
    0.6663502335687156    0.5545201689754862    0.3609763007053429     I41
    0.6663502335687156    0.5545201689754862    0.6943096340386763     I42
    0.6663502335687156    0.8878535023088194    0.0276429673720096     I43
    0.6663502335687156    0.8878535023088194    0.3609763007053429     I44
    0.6663502335687156    0.8878535023088194    0.6943096340386763     I45
    0.9996835669020490    0.2211868356421529    0.0276429673720096     I46
    0.9996835669020490    0.2211868356421529    0.3609763007053429     I47
    0.9996835669020490    0.2211868356421529    0.6943096340386763     I48
    0.9996835669020490    0.5545201689754862    0.0276429673720096     I49
    0.9996835669020490    0.5545201689754862    0.3609763007053429     I50
    0.9996835669020490    0.5545201689754862    0.6943096340386763     I51
    0.9996835669020490    0.8878535023088194    0.0276429673720096     I52
    0.9996835669020490    0.8878535023088194    0.3609763007053429     I53
    0.9996835669020490    0.8878535023088194    0.6943096340386763     I54
    0.3340522837136330    0.1107946854440463    0.0834681509811343     I55
    0.3340522837136330    0.1107946854440463    0.4168014843144676     I56
    0.3340522837136330    0.1107946854440463    0.7501348176478009     I57
    0.3340522837136330    0.4441280187773796    0.0834681509811343     I58
    0.3340522837136330    0.4441280187773796    0.4168014843144676     I59
    0.3340522837136330    0.4441280187773796    0.7501348176478009     I60
    0.3340522837136330    0.7774613521107130    0.0834681509811343     I61
    0.3340522837136330    0.7774613521107130    0.4168014843144676     I62
    0.3340522837136330    0.7774613521107130    0.7501348176478009     I63
    0.6673856170469664    0.1107946854440463    0.0834681509811343     I64
    0.6673856170469664    0.1107946854440463    0.4168014843144676     I65
    0.6673856170469664    0.1107946854440463    0.7501348176478009     I66
    0.6673856170469664    0.4441280187773796    0.0834681509811343     I67
    0.6673856170469664    0.4441280187773796    0.4168014843144676     I68
    0.6673856170469664    0.4441280187773796    0.7501348176478009     I69
    0.6673856170469664    0.7774613521107130    0.0834681509811343     I70
    0.6673856170469664    0.7774613521107130    0.4168014843144676     I71
    0.6673856170469664    0.7774613521107130    0.7501348176478009     I72
    0.0007189503802998    0.1107946854440463    0.0834681509811343     I73
    0.0007189503802998    0.1107946854440463    0.4168014843144676     I74
    0.0007189503802998    0.1107946854440463    0.7501348176478009     I75
    0.0007189503802998    0.4441280187773796    0.0834681509811343     I76
    0.0007189503802998    0.4441280187773796    0.4168014843144676     I77
    0.0007189503802998    0.4441280187773796    0.7501348176478009     I78
    0.0007189503802998    0.7774613521107130    0.0834681509811343     I79
    0.0007189503802998    0.7774613521107130    0.4168014843144676     I80
    0.0007189503802998    0.7774613521107130    0.7501348176478009     I81
    0.2225386506303765    0.2232576001774610    0.0834681484791631     I82
    0.2225386506303765    0.2232576001774610    0.4168014818124964     I83
    0.2225386506303765    0.2232576001774610    0.7501348151458297     I84
    0.2225386506303765    0.5565909335107944    0.0834681484791631     I85
    0.2225386506303765    0.5565909335107944    0.4168014818124964     I86
    0.2225386506303765    0.5565909335107944    0.7501348151458297     I87
    0.2225386506303765    0.8899242668441276    0.0834681484791631     I88
    0.2225386506303765    0.8899242668441276    0.4168014818124964     I89
    0.2225386506303765    0.8899242668441276    0.7501348151458297     I90
    0.5558719839637098    0.2232576001774610    0.0834681484791631     I91
    0.5558719839637098    0.2232576001774610    0.4168014818124964     I92
    0.5558719839637098    0.2232576001774610    0.7501348151458297     I93
    0.5558719839637098    0.5565909335107944    0.0834681484791631     I94
    0.5558719839637098    0.5565909335107944    0.4168014818124964     I95
    0.5558719839637098    0.5565909335107944    0.7501348151458297     I96
    0.5558719839637098    0.8899242668441276    0.0834681484791631     I97
    0.5558719839637098    0.8899242668441276    0.4168014818124964     I98
    0.5558719839637098    0.8899242668441276    0.7501348151458297     I99
    0.8892053172970431    0.2232576001774610    0.0834681484791631    I100
    0.8892053172970431    0.2232576001774610    0.4168014818124964    I101
    0.8892053172970431    0.2232576001774610    0.7501348151458297    I102
    0.8892053172970431    0.5565909335107944    0.0834681484791631    I103
    0.8892053172970431    0.5565909335107944    0.4168014818124964    I104
    0.8892053172970431    0.5565909335107944    0.7501348151458297    I105
    0.8892053172970431    0.8899242668441276    0.0834681484791631    I106
    0.8892053172970431    0.8899242668441276    0.4168014818124964    I107
    0.8892053172970431    0.8899242668441276    0.7501348151458297    I108
    0.1100757294094971    0.9992810373735280    0.0834681520346416    I109
    0.1100757294094971    0.9992810373735280    0.4168014853679750    I110
    0.1100757294094971    0.9992810373735280    0.7501348187013083    I111
    0.1100757294094971    0.3326143707068614    0.0834681520346416    I112
    0.1100757294094971    0.3326143707068614    0.4168014853679750    I113
    0.1100757294094971    0.3326143707068614    0.7501348187013083    I114
    0.1100757294094971    0.6659477040401947    0.0834681520346416    I115
    0.1100757294094971    0.6659477040401947    0.4168014853679750    I116
    0.1100757294094971    0.6659477040401947    0.7501348187013083    I117
    0.4434090627428304    0.9992810373735280    0.0834681520346416    I118
    0.4434090627428304    0.9992810373735280    0.4168014853679750    I119
    0.4434090627428304    0.9992810373735280    0.7501348187013083    I120
    0.4434090627428304    0.3326143707068614    0.0834681520346416    I121
    0.4434090627428304    0.3326143707068614    0.4168014853679750    I122
    0.4434090627428304    0.3326143707068614    0.7501348187013083    I123
    0.4434090627428304    0.6659477040401947    0.0834681520346416    I124
    0.4434090627428304    0.6659477040401947    0.4168014853679750    I125
    0.4434090627428304    0.6659477040401947    0.7501348187013083    I126
    0.7767423960761637    0.9992810373735280    0.0834681520346416    I127
    0.7767423960761637    0.9992810373735280    0.4168014853679750    I128
    0.7767423960761637    0.9992810373735280    0.7501348187013083    I129
    0.7767423960761637    0.3326143707068614    0.0834681520346416    I130
    0.7767423960761637    0.3326143707068614    0.4168014853679750    I131
    0.7767423960761637    0.3326143707068614    0.7501348187013083    I132
    0.7767423960761637    0.6659477040401947    0.0834681520346416    I133
    0.7767423960761637    0.6659477040401947    0.4168014853679750    I134
    0.7767423960761637    0.6659477040401947    0.7501348187013083    I135
    0.2215032727104050    0.0003164203102684    0.0276429589415993    I136
    0.2215032727104050    0.0003164203102684    0.3609762922749327    I137
    0.2215032727104050    0.0003164203102684    0.6943096256082659    I138
    0.2215032727104050    0.3336497536436017    0.0276429589415993    I139
    0.2215032727104050    0.3336497536436017    0.3609762922749327    I140
    0.2215032727104050    0.3336497536436017    0.6943096256082659    I141
    0.2215032727104050    0.6669830869769351    0.0276429589415993    I142
    0.2215032727104050    0.6669830869769351    0.3609762922749327    I143
    0.2215032727104050    0.6669830869769351    0.6943096256082659    I144
    0.5548366060437383    0.0003164203102684    0.0276429589415993    I145
    0.5548366060437383    0.0003164203102684    0.3609762922749327    I146
    0.5548366060437383    0.0003164203102684    0.6943096256082659    I147
    0.5548366060437383    0.3336497536436017    0.0276429589415993    I148
    0.5548366060437383    0.3336497536436017    0.3609762922749327    I149
    0.5548366060437383    0.3336497536436017    0.6943096256082659    I150
    0.5548366060437383    0.6669830869769351    0.0276429589415993    I151
    0.5548366060437383    0.6669830869769351    0.3609762922749327    I152
    0.5548366060437383    0.6669830869769351    0.6943096256082659    I153
    0.8881699393770717    0.0003164203102684    0.0276429589415993    I154
    0.8881699393770717    0.0003164203102684    0.3609762922749327    I155
    0.8881699393770717    0.0003164203102684    0.6943096256082659    I156
    0.8881699393770717    0.3336497536436017    0.0276429589415993    I157
    0.8881699393770717    0.3336497536436017    0.3609762922749327    I158
    0.8881699393770717    0.3336497536436017    0.6943096256082659    I159
    0.8881699393770717    0.6669830869769351    0.0276429589415993    I160
    0.8881699393770717    0.6669830869769351    0.3609762922749327    I161
    0.8881699393770717    0.6669830869769351    0.6943096256082659    I162
    0.3343687180737956    0.2229411871822290    0.1387540730623245    I163
    0.3343687180737956    0.2229411871822290    0.4720874063956578    I164
    0.3343687180737956    0.2229411871822290    0.8054207397289912    I165
    0.3343687180737956    0.5562745205155624    0.1387540730623245    I166
    0.3343687180737956    0.5562745205155624    0.4720874063956578    I167
    0.3343687180737956    0.5562745205155624    0.8054207397289912    I168
    0.3343687180737956    0.8896078538488956    0.1387540730623245    I169
    0.3343687180737956    0.8896078538488956    0.4720874063956578    I170
    0.3343687180737956    0.8896078538488956    0.8054207397289912    I171
    0.6677020514071290    0.2229411871822290    0.1387540730623245    I172
    0.6677020514071290    0.2229411871822290    0.4720874063956578    I173
    0.6677020514071290    0.2229411871822290    0.8054207397289912    I174
    0.6677020514071290    0.5562745205155624    0.1387540730623245    I175
    0.6677020514071290    0.5562745205155624    0.4720874063956578    I176
    0.6677020514071290    0.5562745205155624    0.8054207397289912    I177
    0.6677020514071290    0.8896078538488956    0.1387540730623245    I178
    0.6677020514071290    0.8896078538488956    0.4720874063956578    I179
    0.6677020514071290    0.8896078538488956    0.8054207397289912    I180
    0.0010353847404623    0.2229411871822290    0.1387540730623245    I181
    0.0010353847404623    0.2229411871822290    0.4720874063956578    I182
    0.0010353847404623    0.2229411871822290    0.8054207397289912    I183
    0.0010353847404623    0.5562745205155624    0.1387540730623245    I184
    0.0010353847404623    0.5562745205155624    0.4720874063956578    I185
    0.0010353847404623    0.5562745205155624    0.8054207397289912    I186
    0.0010353847404623    0.8896078538488956    0.1387540730623245    I187
    0.0010353847404623    0.8896078538488956    0.4720874063956578    I188
    0.0010353847404623    0.8896078538488956    0.8054207397289912    I189
    0.2219057919061849    0.9989646310014997    0.1387540699312272    I190
    0.2219057919061849    0.9989646310014997    0.4720874032645606    I191
    0.2219057919061849    0.9989646310014997    0.8054207365978938    I192
    0.2219057919061849    0.3322979643348331    0.1387540699312272    I193
    0.2219057919061849    0.3322979643348331    0.4720874032645606    I194
    0.2219057919061849    0.3322979643348331    0.8054207365978938    I195
    0.2219057919061849    0.6656312976681663    0.1387540699312272    I196
    0.2219057919061849    0.6656312976681663    0.4720874032645606    I197
    0.2219057919061849    0.6656312976681663    0.8054207365978938    I198
    0.5552391252395182    0.9989646310014997    0.1387540699312272    I199
    0.5552391252395182    0.9989646310014997    0.4720874032645606    I200
    0.5552391252395182    0.9989646310014997    0.8054207365978938    I201
    0.5552391252395182    0.3322979643348331    0.1387540699312272    I202
    0.5552391252395182    0.3322979643348331    0.4720874032645606    I203
    0.5552391252395182    0.3322979643348331    0.8054207365978938    I204
    0.5552391252395182    0.6656312976681663    0.1387540699312272    I205
    0.5552391252395182    0.6656312976681663    0.4720874032645606    I206
    0.5552391252395182    0.6656312976681663    0.8054207365978938    I207
    0.8885724585728516    0.9989646310014997    0.1387540699312272    I208
    0.8885724585728516    0.9989646310014997    0.4720874032645606    I209
    0.8885724585728516    0.9989646310014997    0.8054207365978938    I210
    0.8885724585728516    0.3322979643348331    0.1387540699312272    I211
    0.8885724585728516    0.3322979643348331    0.4720874032645606    I212
    0.8885724585728516    0.3322979643348331    0.8054207365978938    I213
    0.8885724585728516    0.6656312976681663    0.1387540699312272    I214
    0.8885724585728516    0.6656312976681663    0.4720874032645606    I215
    0.8885724585728516    0.6656312976681663    0.8054207365978938    I216
    0.2229411729197706    0.2219057972427100    0.1945792625217328    I217
    0.2229411729197706    0.2219057972427100    0.5279125958550661    I218
    0.2229411729197706    0.2219057972427100    0.8612459291883995    I219
    0.2229411729197706    0.5552391305760432    0.1945792625217328    I220
    0.2229411729197706    0.5552391305760432    0.5279125958550661    I221
    0.2229411729197706    0.5552391305760432    0.8612459291883995    I222
    0.2229411729197706    0.8885724639093766    0.1945792625217328    I223
    0.2229411729197706    0.8885724639093766    0.5279125958550661    I224
    0.2229411729197706    0.8885724639093766    0.8612459291883995    I225
    0.5562745062531038    0.2219057972427100    0.1945792625217328    I226
    0.5562745062531038    0.2219057972427100    0.5279125958550661    I227
    0.5562745062531038    0.2219057972427100    0.8612459291883995    I228
    0.5562745062531038    0.5552391305760432    0.1945792625217328    I229
    0.5562745062531038    0.5552391305760432    0.5279125958550661    I230
    0.5562745062531038    0.5552391305760432    0.8612459291883995    I231
    0.5562745062531038    0.8885724639093766    0.1945792625217328    I232
    0.5562745062531038    0.8885724639093766    0.5279125958550661    I233
    0.5562745062531038    0.8885724639093766    0.8612459291883995    I234